Translating instance to solver...

GLPSOL--GLPK LP/MIP Solver 5.0
Parameter(s) specified in the command line:
 --tmlim 28800 --mipgap 0.001 --write /tmp/tmpidzi6k4a.glpk.raw --wglp /tmp/tmp64toz6vu.glpk.glp
 --cpxlp /tmp/tmpts4nznon.pyomo.lp
Reading problem data from '/tmp/tmpts4nznon.pyomo.lp'...
/tmp/tmpts4nznon.pyomo.lp:295034: warning: lower bound of variable 'x2' redefined
/tmp/tmpts4nznon.pyomo.lp:295034: warning: upper bound of variable 'x2' redefined
50636 rows, 25892 columns, 117101 non-zeros
25892 integer variables, 25860 of which are binary
320894 lines were read
Writing problem data to '/tmp/tmp64toz6vu.glpk.glp'...
228513 lines were written
GLPK Integer Optimizer 5.0
50636 rows, 25892 columns, 117101 non-zeros
25892 integer variables, 25860 of which are binary
Preprocessing...
190 hidden packing inequaliti(es) were detected
8110 hidden covering inequaliti(es) were detected
100 constraint coefficient(s) were reduced
29998 rows, 12201 columns, 75659 non-zeros
12201 integer variables, 12170 of which are binary
Scaling...
 A: min|aij| =  1.000e+00  max|aij| =  3.100e+01  ratio =  3.100e+01
GM: min|aij| =  4.238e-01  max|aij| =  2.360e+00  ratio =  5.568e+00
EQ: min|aij| =  2.226e-01  max|aij| =  1.000e+00  ratio =  4.492e+00
2N: min|aij| =  2.500e-01  max|aij| =  1.438e+00  ratio =  5.750e+00
Constructing initial basis...
Size of triangular part is 29998
Solving LP relaxation...
GLPK Simplex Optimizer 5.0
29998 rows, 12201 columns, 75659 non-zeros
      0: obj =   0.000000000e+00 inf =   5.812e+01 (105)
Perturbing LP to avoid stalling [271]...
   1193: obj =   4.540045664e+00 inf =   3.048e-08 (0) 3
Removing LP perturbation [2631]...
*  2631: obj =   6.117820000e-01 inf =   1.110e-13 (0) 8
OPTIMAL LP SOLUTION FOUND
Integer optimization begins...
Long-step dual simplex will be used
+  2631: mip =     not found yet >=              -inf        (1; 0)
+  4935: mip =     not found yet >=   6.117820000e-01        (23; 3)
+  6249: mip =     not found yet >=   6.117820000e-01        (41; 4)
+  7677: mip =     not found yet >=   6.117820000e-01        (65; 5)
+  8329: mip =     not found yet >=   6.117820000e-01        (89; 6)
+  9600: mip =     not found yet >=   6.117820000e-01        (115; 8)
+ 11851: mip =     not found yet >=   6.117820000e-01        (136; 10)
+ 14377: mip =     not found yet >=   6.117820000e-01        (152; 10)
+ 15882: mip =     not found yet >=   6.117820000e-01        (169; 12)
+ 18402: mip =     not found yet >=   6.117820000e-01        (193; 15)
+ 18750: mip =     not found yet >=   6.117820000e-01        (220; 15)
+ 18947: mip =     not found yet >=   6.117820000e-01        (267; 15)
Time used: 60.4 secs.  Memory used: 47.0 Mb.
+ 19966: mip =     not found yet >=   6.117820000e-01        (294; 16)
+ 22012: mip =     not found yet >=   6.117820000e-01        (322; 19)
+ 24545: mip =     not found yet >=   6.117820000e-01        (363; 24)
+ 24739: mip =     not found yet >=   6.117820000e-01        (369; 24)
+ 24898: mip =     not found yet >=   6.117820000e-01        (376; 24)
+ 26765: mip =     not found yet >=   6.117820000e-01        (399; 27)
+ 28025: mip =     not found yet >=   6.117820000e-01        (411; 27)
+ 28909: mip =     not found yet >=   6.117820000e-01        (428; 27)
+ 29335: mip =     not found yet >=   6.117820000e-01        (457; 27)
+ 29676: mip =     not found yet >=   6.117820000e-01        (489; 27)
+ 30852: mip =     not found yet >=   6.117820000e-01        (547; 28)
+ 32816: mip =     not found yet >=   6.117820000e-01        (590; 32)
Time used: 120.5 secs.  Memory used: 54.7 Mb.
+ 34889: mip =     not found yet >=   6.117820000e-01        (629; 36)
+ 36121: mip =     not found yet >=   6.117820000e-01        (661; 41)
+ 38750: mip =     not found yet >=   6.117820000e-01        (702; 46)
+ 40089: mip =     not found yet >=   6.117820000e-01        (754; 48)
+ 41659: mip =     not found yet >=   6.117820000e-01        (795; 51)
+ 42454: mip =     not found yet >=   6.117820000e-01        (844; 52)
+ 44197: mip =     not found yet >=   6.117820000e-01        (882; 57)
+ 45776: >>>>>   1.373762000e+00 >=   6.117820000e-01  55.5% (922; 58)
+ 47460: mip =   1.373762000e+00 >=   6.117820000e-01  55.5% (567; 762)
+ 48224: mip =   1.373762000e+00 >=   6.117820000e-01  55.5% (602; 763)
+ 49117: mip =   1.373762000e+00 >=   6.117820000e-01  55.5% (639; 766)
+ 50895: mip =   1.373762000e+00 >=   6.117820000e-01  55.5% (691; 769)
Time used: 180.6 secs.  Memory used: 60.6 Mb.
+ 52229: mip =   1.373762000e+00 >=   6.117820000e-01  55.5% (721; 772)
+ 52713: mip =   1.373762000e+00 >=   6.117820000e-01  55.5% (743; 774)
+ 53845: mip =   1.373762000e+00 >=   6.117820000e-01  55.5% (774; 777)
+ 56680: mip =   1.373762000e+00 >=   6.117820000e-01  55.5% (796; 786)
+ 59163: mip =   1.373762000e+00 >=   6.117820000e-01  55.5% (814; 792)
+ 60501: mip =   1.373762000e+00 >=   6.117820000e-01  55.5% (850; 797)
+ 61884: mip =   1.373762000e+00 >=   6.117820000e-01  55.5% (870; 803)
+ 64744: mip =   1.373762000e+00 >=   6.117820000e-01  55.5% (893; 812)
+ 65184: >>>>>   6.117820000e-01 >=   6.117820000e-01   0.0% (893; 814)
+ 65184: mip =   6.117820000e-01 >=     tree is empty   0.0% (0; 2785)
INTEGER OPTIMAL SOLUTION FOUND
Time used:   220.8 secs
Memory used: 76.3 Mb (79979813 bytes)
Writing MIP solution to '/tmp/tmpidzi6k4a.glpk.raw'...
76537 lines were written

Results:

E = 0.611782 mA
C = 12.0 points
C ~= 4.800000000000001 km^2

Minimum Epsilon for this instance = 9
Maximum Epsilon for this instance = 98
Current Epsilon = 9

Instance Maximum Epsilon Preprocessing Time: 0.003406524658203125 s

Time in solver (for this epsilon): 221.01435732841492 s
Elapsed time (for this epsilon): 222.59849071502686 s


Total elapsed time since execution of first epsilon: 34759.038206100464 s


Updated solution vectors:
sol_E = [0.611782]
sol_C = [12.0]
sol_eps = [9]
